==> MAXTIME              = 3600
==> OUTPUTLOG            = 1
==> SBESTIMATE           = 6
FICO Xpress v8.5.9, solve started 23:51:14, Jun 8, 2019
Maximizing MILP Seating model
Original problem has:
       230 rows          300 cols         7440 elements       300 globals
Presolved problem has:
       103 rows          204 cols         2431 elements       198 globals
LP relaxation tightened
Will try to keep branch and bound tree memory usage below 7.2GB
 *** Heuristic solution found:    22.000000      Time: 0 ***
Starting concurrent solve with dual

 Concurrent-Solve,   0s
            Dual        
    objective   dual inf
 D  102.00000   .0000000
------- optimal --------
Concurrent statistics:
      Dual: 34 simplex iterations, 0.00s
Optimal solution found
 
   Its         Obj Value      S   Ninf  Nneg   Sum Dual Inf  Time
    34        102.000000      D      0     0        .000000     0
Dual solved problem
  34 simplex iterations in 0s

Final objective                         : 1.020000000000000e+02
  Max primal violation      (abs / rel) : 1.110e-16 / 9.869e-17
  Max dual violation        (abs / rel) :       0.0 /       0.0
  Max complementarity viol. (abs / rel) :       0.0 /       0.0
All values within tolerances

Starting root cutting & heuristics
 
 Its Type    BestSoln    BestBound   Sols    Add    Del     Gap     GInf   Time
   1  K     22.000000   102.000000      1     99      0   78.43%      29      0
   2  K     22.000000   102.000000      1    111     81   78.43%      43      0
   3  K     22.000000   102.000000      1     92    101   78.43%      48      0
b           28.000000   102.000000      2                 72.55%       0      0
   4  K     28.000000   102.000000      2     87     94   72.55%      35      0
   5  K     28.000000   102.000000      2    100     83   72.55%      49      0
   6  K     28.000000   102.000000      2     93     97   72.55%      47      0
   7  K     28.000000   102.000000      2     89     88   72.55%      58      0
b           35.000000   102.000000      3                 65.69%       0      0
   8  K     35.000000   102.000000      3     81     91   65.69%      37      0
   9  K     35.000000   102.000000      3     95     87   65.69%      48      0
  10  K     35.000000   102.000000      3     97     89   65.69%      58      0
  11  K     35.000000   102.000000      3     83     86   65.69%      67      0
  12  K     35.000000   102.000000      3     93     82   65.69%      72      0
  13  K     35.000000   102.000000      3     87     85   65.69%      76      0
  14  K     35.000000   102.000000      3      2     83   65.69%      39      0
  15  K     35.000000   102.000000      3      1      7   65.69%      39      0
  16  K     35.000000   102.000000      3      1     13   65.69%      39      0
  17  K     35.000000   102.000000      3     96      8   65.69%      58      0
  18  K     35.000000   102.000000      3      2     91   65.69%      39      0
b           47.000000   102.000000      4                 53.92%       0      0
  19  K     47.000000   102.000000      4     93     14   53.92%      52      0
  20  K     47.000000   102.000000      4     99    150   53.92%      59      0
  21  G     47.000000   102.000000      4     39     31   53.92%      41      0
  22  G     47.000000   102.000000      4     70    110   53.92%      55      0
Heuristic search started
Heuristic search stopped
 
Cuts in the matrix         : 39
Cut elements in the matrix : 1106
 
Starting tree search.
Deterministic mode with up to 4 running threads and up to 8 tasks.
 
    Node     BestSoln    BestBound   Sols Active  Depth     Gap     GInf   Time
       1    47.000000   102.000000      4      2      1   53.92%      45      0
       2    47.000000   102.000000      4      2      2   53.92%      57      0
       3    47.000000   102.000000      4      2      3   53.92%      49      0
       4    47.000000   102.000000      4      2      2   53.92%      54      0
       5    47.000000   102.000000      4      2      3   53.92%      41      0
       6    47.000000   102.000000      4      2      4   53.92%      36      0
       7    47.000000   102.000000      4      5      4   53.92%      34      0
       8    47.000000   102.000000      4      8      3   53.92%      42      0
       9    47.000000   102.000000      4      8      4   53.92%      55      0
      10    47.000000   102.000000      4      8      4   53.92%      35      0
      20    47.000000   102.000000      4     14      8   53.92%      60      0
      30    47.000000   102.000000      4     14     12   53.92%      44      1
a     42    51.000000   102.000000      5     14     19   50.00%       0      1
      53    51.000000   102.000000      5     14     15   50.00%      39      1
      76    51.000000   102.000000      5     30     25   50.00%       5      1
      87    51.000000   102.000000      5     47     12   50.00%      43      1
     107    51.000000   102.000000      5     47     13   50.00%      24      1
     211    51.000000   102.000000      5     47     13   50.00%      50      1
     323    51.000000   102.000000      5     47     22   50.00%      26      1
B&B tree size: 1.4MB total
 
    Node     BestSoln    BestBound   Sols Active  Depth     Gap     GInf   Time
     431    51.000000   102.000000      5    158     19   50.00%      13      1
     536    51.000000   102.000000      5    158     26   50.00%      26      1
     645    51.000000   102.000000      5    158     22   50.00%      34      1
     749    51.000000   102.000000      5    199     24   50.00%      13      1
     857    51.000000   102.000000      5    224     16   50.00%      17      1
     961    51.000000   102.000000      5    268     20   50.00%      35      1
    1069    51.000000   102.000000      5    268     13   50.00%      62      2
    1187    51.000000   102.000000      5    268     26   50.00%      29      2
a   1260    52.000000   102.000000      6    268     27   49.02%       0      2
    1291    52.000000   102.000000      6    268     17   49.02%      17      2
    1405    52.000000   102.000000      6    332     16   49.02%      35      2
a   1453    57.000000   102.000000      7    332     23   44.12%       0      2
    1507    57.000000   102.000000      7    332     28   44.12%      30      2
    1610    57.000000   102.000000      7    369     22   44.12%      26      2
    1718    57.000000   102.000000      7    369     11   44.12%      46      2
    1828    57.000000   102.000000      7    419     16   44.12%      43      2
    1936    57.000000   102.000000      7    419     17   44.12%      33      2
    2039    57.000000   101.619323      7    504     23   43.91%      15      2
    2140    57.000000   101.619323      7    504     16   43.91%      51      2
    2240    57.000000   101.619323      7    504     16   43.91%      34      2
B&B tree size: 5.3MB total
 
    Node     BestSoln    BestBound   Sols Active  Depth     Gap     GInf   Time
    2343    57.000000   101.619323      7    504     23   43.91%      22      2
    2444    57.000000   101.619323      7    555     22   43.91%      35      3
    2554    57.000000   101.619323      7    555     15   43.91%      47      3
    2669    57.000000   101.619323      7    555     23   43.91%      26      3
    2779    57.000000   101.619323      7    653     16   43.91%      43      3
    2881    57.000000   101.619323      7    653     15   43.91%      41      3
    2994    57.000000   101.619323      7    653     11   43.91%      61      3
    3103    57.000000    99.631530      7    782     16   42.79%      40      3
    3203    57.000000    99.631530      7    782     15   42.79%      53      3
    3310    57.000000    99.631530      7    863     23   42.79%      20      3
    3418    57.000000    99.631530      7    863     16   42.79%      44      3
    3518    57.000000    99.631530      7    863     16   42.79%      43      3
    3622    57.000000    99.631530      7    897     16   42.79%      23      3
    3733    57.000000    99.631530      7    897     19   42.79%      38      3
    3837    57.000000    99.631530      7    897     18   42.79%      40      4
    3951    57.000000    99.631530      7    897     19   42.79%      24      4
    4056    57.000000    99.631530      7    932     16   42.79%      57      4
    4159    57.000000    99.631530      7    932     15   42.79%      59      4
    4261    57.000000    99.631530      7   1027     16   42.79%      39      4
    4362    57.000000    99.631530      7   1027     15   42.79%      47      4
B&B tree size: 8.9MB total
 
    Node     BestSoln    BestBound   Sols Active  Depth     Gap     GInf   Time
a   4413    59.000000    99.631530      8   1027     27   40.78%       0      4
    4465    59.000000    99.631530      8   1027     18   40.78%      37      4
    4587    59.000000    99.631530      8   1027     24   40.78%      10      4
    4693    59.000000    99.631530      8   1027     14   40.78%      54      4
    4798    59.000000    99.631530      8   1027     17   40.78%      46      4
    4901    59.000000    99.631530      8   1027     18   40.78%      47      4
    5012    59.000000    99.631530      8   1027     15   40.78%      31      4
    5118    59.000000    99.631530      8   1027     19   40.78%      20      5
    5229    59.000000    99.631530      8   1027     22   40.78%      18      5
    5332    59.000000    99.631530      8   1027     23   40.78%      16      5
a   5397    60.000000    99.631530      9   1027     20   39.78%       0      5
    5434    60.000000    99.631530      9   1027     20   39.78%      46      5
    5604    60.000000    99.631530      9   1021      1   39.78%       1      5
    5711    60.000000    99.631530      9   1021     11   39.78%      30      5
    5826    60.000000    99.631530      9   1021     19   39.78%      34      5
    5948    60.000000    99.631530      9   1021     22   39.78%      25      5
    6050    60.000000    99.631530      9   1160     19   39.78%      48      5
    6156    60.000000    99.631530      9   1160     16   39.78%      34      5
    6270    60.000000    99.631530      9   1205     16   39.78%      46      5
    6372    60.000000    99.631530      9   1205     17   39.78%      44      5
B&B tree size: 10MB total
 
    Node     BestSoln    BestBound   Sols Active  Depth     Gap     GInf   Time
    6498    60.000000    99.631530      9   1205     21   39.78%      17      5
    6601    60.000000    96.836387      9   1445     21   38.04%       9      5
    6714    60.000000    96.836387      9   1728     16   38.04%      23      6
    6826    60.000000    96.836387      9   1728     23   38.04%      32      6
    6930    60.000000    96.836387      9   1728     16   38.04%      37      6
    7037    60.000000    96.836387      9   1728     19   38.04%      29      6
    7151    60.000000    96.836387      9   1728     20   38.04%      25      6
    7251    60.000000    96.836387      9   1728     15   38.04%      51      6
    7367    60.000000    96.836387      9   1728     22   38.04%      33      6
    7475    60.000000    96.836387      9   1728     20   38.04%      16      6
    7591    60.000000    96.836387      9   1732     21   38.04%      38      6
    7699    60.000000    96.836387      9   1732     17   38.04%      49      6
    7811    60.000000    96.836387      9   1732     16   38.04%      45      6
    7926    60.000000    96.836387      9   1732     15   38.04%      48      6
    8033    60.000000    96.836387      9   1732     16   38.04%      27      7
    8135    60.000000    96.836387      9   1838     17   38.04%      51      7
    8243    60.000000    96.836387      9   1838     16   38.04%      38      7
    8361    60.000000    89.611891      9   1887     16   33.04%      39      7
    8472    60.000000    89.611891      9   1963     16   33.04%      33      7
    8575    60.000000    89.611891      9   1999     16   33.04%      34      7
B&B tree size: 14MB total
 
    Node     BestSoln    BestBound   Sols Active  Depth     Gap     GInf   Time
    8685    60.000000    88.033109      9   2043     17   31.84%      33      7
    8795    60.000000    88.033109      9   2043     20   31.84%      20      7
    8901    60.000000    88.033109      9   2043     19   31.84%      15      7
    9004    60.000000    88.033109      9   2043     18   31.84%      18      7
    9105    60.000000    88.033109      9   2058     18   31.84%      17      8
    9211    60.000000    88.033109      9   2058     20   31.84%      14      8
    9323    60.000000    88.033109      9   2058     16   31.84%      42      8
    9433    60.000000    88.033109      9   2108     17   31.84%      42      8
    9545    60.000000    88.033109      9   2108     27   31.84%      18      8
    9655    60.000000    88.033109      9   2108     22   31.84%      24      8
    9761    60.000000    88.033109      9   2108     18   31.84%      24      8
    9863    60.000000    88.033109      9   2108     14   31.84%      55      8
    9973    60.000000    88.033109      9   2198     14   31.84%      54      8
   10076    60.000000    88.033109      9   2285     17   31.84%      46      8
   11083    60.000000    85.443449      9   2413     13   29.78%      57      9
   12097    60.000000    85.021180      9   2579     16   29.43%      47     10
   13103    60.000000    83.541594      9   2671     16   28.18%      45     11
   14111    60.000000    82.846104      9   2772     16   27.58%      45     11
   15114    60.000000    82.846104      9   2812     16   27.58%      33     12
   16133    60.000000    82.000000      9   2864     21   26.83%      38     13
B&B tree size: 23MB total
 
    Node     BestSoln    BestBound   Sols Active  Depth     Gap     GInf   Time
   17140    60.000000    81.698288      9   2894     19   26.56%      40     14
   18143    60.000000    80.066883      9   2955     20   25.06%      21     14
   19149    60.000000    79.088272      9   2919     27   24.14%      29     15
   20156    60.000000    78.063257      9   2917     16   23.14%      35     16
   21157    60.000000    77.306751      9   2929     17   22.39%      40     17
   22172    60.000000    76.770108      9   2918     23   21.84%      11     18
   23192    60.000000    75.974560      9   2855     22   21.03%      19     18
   24194    60.000000    75.529388      9   2857     22   20.56%      30     19
   25203    60.000000    75.000000      9   2830     19   20.00%      30     20
   26208    60.000000    75.000000      9   2800     27   20.00%      29     20
   27209    60.000000    74.000000      9   2807     21   18.92%      32     21
   28211    60.000000    74.000000      9   2758     24   18.92%      12     21
   29212    60.000000    73.042028      9   2779     26   17.86%      12     22
   30212    60.000000    72.990573      9   2679     22   17.80%      37     22
   31222    60.000000    72.000000      9   2595     19   16.67%      29     23
   32237    60.000000    71.139029      9   2511     22   15.66%      23     23
   33243    60.000000    70.397661      9   2398     24   14.77%      17     24
   34261    60.000000    70.000000      9   2365     24   14.29%      27     25
   35265    60.000000    70.000000      9   2283     25   14.29%      14     25
   36266    60.000000    69.000000      9   2171     26   13.04%      25     25
B&B tree size: 25MB total
 
    Node     BestSoln    BestBound   Sols Active  Depth     Gap     GInf   Time
   37270    60.000000    68.568625      9   2007     20   12.50%      40     26
   38274    60.000000    68.000000      9   1849     25   11.76%      27     26
   39278    60.000000    67.214407      9   1641     21   10.73%      15     27
   40278    60.000000    67.000000      9   1442     17   10.45%      39     27
   41285    60.000000    66.000000      9   1248     22    9.09%      33     28
   42286    60.000000    65.000000      9    858     20    7.69%      31     28
   43291    60.000000    63.048958      9    419     22    4.84%      18     28
   44293    60.000000    61.000000      9     17     20    1.64%      29     29
 *** Search completed ***     Time:    29 Nodes:      44325
Number of integer feasible solutions found is 9
Best integer solution found is    60.000000
Best bound is    60.000000
Uncrunching matrix
